70 720
1 23 16 47 37 58 50 60 33 12 34 21 17 43 68 44 28 8 26 49 55 19 2 4 18 42 41 6 53 5 10 52 51 56 65 64 11 48 67 54 62 39 25 45 61 40 9 27 46 30 20 14 3 32 7 24 15 57 63 66 22 59 38 69 31 35 70 13 29 36 
